NAME : portcgen-24-18
COMMENT : portcgen N=24, seed=18
TYPE : TSP
DIMENSION : 24
EDGE_WEIGHT_TYPE : EUC_2D
NODE_COORD_SECTION
1 252952 84969
2 -236281 384902
3 138953 504920
4 135625 94033
5 79948 153400
6 -165342 169750
7 -56692 284434
8 -334021 -305665
9 117534 230274
10 249460 159527
11 345253 -236412
12 104722 -343589
13 -65711 -64147
14 78169 254113
15 151293 -501962
16 -7208 273808
17 39194 -84819
18 -12038 5116
19 279028 22529
20 96895 -12792
21 -179023 -46785
22 228799 -101331
23 222598 203873
24 16111 509197
